c An instance of conditional planning (by rintanen@informatik.uni-freiburg.de)
p cnf 86  649 
e 34 35 36 37 38 39 40 41 42 43 44 45 46 47 48 49 50 51 52 53 54 55 56 57 58 59 60 61 0
r 0.5 72 71 70 69 68 73 0
e 1 2 3 4 5 6 7 8 9 10 11 12 13 14 15 16 17 18 19 20 21 22 23 24 25 26 27 28 29 30 31 32 33 62 63 64 65 66 67 74 75 76 77 78 79 80 81 82 83 84 85 86 0
-69 -70 -71 -72 -73 68 74 0
-69 -70 -71 -72 -73 68 75 0
-69 -70 -71 -72 -73 68 76 0
-69 -70 -71 -72 -73 68 77 0
-69 -70 -71 -72 -73 68 78 0
-69 -70 -71 -72 -73 -79 68 0
-69 -70 -71 -72 -74 68 73 0
-69 -70 -71 -72 68 73 75 0
-69 -70 -71 -72 68 73 76 0
-69 -70 -71 -72 68 73 77 0
-69 -70 -71 -72 68 73 78 0
-69 -70 -71 -72 68 73 79 0
-68 -70 -71 -72 -73 -74 69 0
-68 -70 -71 -72 -73 69 75 0
-68 -70 -71 -72 -73 69 76 0
-68 -70 -71 -72 -73 69 77 0
-68 -70 -71 -72 -73 69 78 0
-68 -70 -71 -72 -73 -79 69 0
-68 -70 -71 -72 69 73 74 0
-68 -70 -71 -72 -75 69 73 0
-68 -70 -71 -72 69 73 76 0
-68 -70 -71 -72 69 73 77 0
-68 -70 -71 -72 69 73 78 0
-68 -70 -71 -72 69 73 79 0
-70 -71 -72 -73 68 69 74 0
-70 -71 -72 -73 -75 68 69 0
-70 -71 -72 -73 68 69 76 0
-70 -71 -72 -73 68 69 77 0
-70 -71 -72 -73 68 69 78 0
-70 -71 -72 -73 -79 68 69 0
-70 -71 -72 -74 68 69 73 0
-70 -71 -72 -75 68 69 73 0
-70 -71 -72 68 69 73 76 0
-70 -71 -72 68 69 73 77 0
-70 -71 -72 68 69 73 78 0
-70 -71 -72 68 69 73 79 0
-68 -69 -71 -72 -73 -74 70 0
-68 -69 -71 -72 -73 -75 70 0
-68 -69 -71 -72 -73 70 76 0
-68 -69 -71 -72 -73 70 77 0
-68 -69 -71 -72 -73 70 78 0
-68 -69 -71 -72 -73 -79 70 0
-68 -69 -71 -72 70 73 74 0
-68 -69 -71 -72 70 73 75 0
-68 -69 -71 -72 -76 70 73 0
-68 -69 -71 -72 70 73 77 0
-68 -69 -71 -72 70 73 78 0
-68 -69 -71 -72 70 73 79 0
-69 -71 -72 -73 68 70 74 0
-69 -71 -72 -73 68 70 75 0
-69 -71 -72 -73 -76 68 70 0
-69 -71 -72 -73 68 70 77 0
-69 -71 -72 -73 68 70 78 0
-69 -71 -72 -73 -79 68 70 0
-69 -71 -72 -74 68 70 73 0
-69 -71 -72 68 70 73 75 0
-69 -71 -72 -76 68 70 73 0
-69 -71 -72 68 70 73 77 0
-69 -71 -72 68 70 73 78 0
-69 -71 -72 68 70 73 79 0
-68 -71 -72 -73 -74 69 70 0
-68 -71 -72 -73 69 70 75 0
-68 -71 -72 -73 -76 69 70 0
-68 -71 -72 -73 69 70 77 0
-68 -71 -72 -73 69 70 78 0
-68 -71 -72 -73 -79 69 70 0
-68 -71 -72 69 70 73 74 0
-68 -71 -72 -75 69 70 73 0
-68 -71 -72 -76 69 70 73 0
-68 -71 -72 69 70 73 77 0
-68 -71 -72 69 70 73 78 0
-68 -71 -72 69 70 73 79 0
-71 -72 -73 68 69 70 74 0
-71 -72 -73 -75 68 69 70 0
-71 -72 -73 -76 68 69 70 0
-71 -72 -73 68 69 70 77 0
-71 -72 -73 68 69 70 78 0
-71 -72 -73 -79 68 69 70 0
-71 -72 -74 68 69 70 73 0
-71 -72 -75 68 69 70 73 0
-71 -72 -76 68 69 70 73 0
-71 -72 68 69 70 73 77 0
-71 -72 68 69 70 73 78 0
-71 -72 68 69 70 73 79 0
-68 -69 -70 -72 -73 -74 71 0
-68 -69 -70 -72 -73 -75 71 0
-68 -69 -70 -72 -73 -76 71 0
-68 -69 -70 -72 -73 71 77 0
-68 -69 -70 -72 -73 71 78 0
-68 -69 -70 -72 -73 -79 71 0
-68 -69 -70 -72 71 73 74 0
-68 -69 -70 -72 71 73 75 0
-68 -69 -70 -72 71 73 76 0
-68 -69 -70 -72 -77 71 73 0
-68 -69 -70 -72 71 73 78 0
-68 -69 -70 -72 71 73 79 0
-69 -70 -72 -73 68 71 74 0
-69 -70 -72 -73 68 71 75 0
-69 -70 -72 -73 68 71 76 0
-69 -70 -72 -73 -77 68 71 0
-69 -70 -72 -73 68 71 78 0
-69 -70 -72 -73 -79 68 71 0
-69 -70 -72 -74 68 71 73 0
-69 -70 -72 68 71 73 75 0
-69 -70 -72 68 71 73 76 0
-69 -70 -72 -77 68 71 73 0
-69 -70 -72 68 71 73 78 0
-69 -70 -72 68 71 73 79 0
-68 -70 -72 -73 -74 69 71 0
-68 -70 -72 -73 69 71 75 0
-68 -70 -72 -73 69 71 76 0
-68 -70 -72 -73 -77 69 71 0
-68 -70 -72 -73 69 71 78 0
-68 -70 -72 -73 -79 69 71 0
-68 -70 -72 69 71 73 74 0
-68 -70 -72 -75 69 71 73 0
-68 -70 -72 69 71 73 76 0
-68 -70 -72 -77 69 71 73 0
-68 -70 -72 69 71 73 78 0
-68 -70 -72 69 71 73 79 0
-70 -72 -73 68 69 71 74 0
-70 -72 -73 -75 68 69 71 0
-70 -72 -73 68 69 71 76 0
-70 -72 -73 -77 68 69 71 0
-70 -72 -73 68 69 71 78 0
-70 -72 -73 -79 68 69 71 0
-70 -72 -74 68 69 71 73 0
-70 -72 -75 68 69 71 73 0
-70 -72 68 69 71 73 76 0
-70 -72 -77 68 69 71 73 0
-70 -72 68 69 71 73 78 0
-70 -72 68 69 71 73 79 0
-68 -69 -72 -73 -74 70 71 0
-68 -69 -72 -73 -75 70 71 0
-68 -69 -72 -73 70 71 76 0
-68 -69 -72 -73 -77 70 71 0
-68 -69 -72 -73 70 71 78 0
-68 -69 -72 -73 -79 70 71 0
-68 -69 -72 70 71 73 74 0
-68 -69 -72 70 71 73 75 0
-68 -69 -72 -76 70 71 73 0
-68 -69 -72 -77 70 71 73 0
-68 -69 -72 70 71 73 78 0
-68 -69 -72 70 71 73 79 0
-69 -72 -73 68 70 71 74 0
-69 -72 -73 68 70 71 75 0
-69 -72 -73 -76 68 70 71 0
-69 -72 -73 -77 68 70 71 0
-69 -72 -73 68 70 71 78 0
-69 -72 -73 -79 68 70 71 0
-69 -72 -74 68 70 71 73 0
-69 -72 68 70 71 73 75 0
-69 -72 -76 68 70 71 73 0
-69 -72 -77 68 70 71 73 0
-69 -72 68 70 71 73 78 0
-69 -72 68 70 71 73 79 0
-68 -72 -73 -74 69 70 71 0
-68 -72 -73 69 70 71 75 0
-68 -72 -73 -76 69 70 71 0
-68 -72 -73 -77 69 70 71 0
-68 -72 -73 69 70 71 78 0
-68 -72 -73 -79 69 70 71 0
-68 -72 69 70 71 73 74 0
-68 -72 -75 69 70 71 73 0
-68 -72 -76 69 70 71 73 0
-68 -72 -77 69 70 71 73 0
-68 -72 69 70 71 73 78 0
-68 -72 69 70 71 73 79 0
-72 -73 68 69 70 71 74 0
-72 -73 -75 68 69 70 71 0
-72 -73 -76 68 69 70 71 0
-72 -73 -77 68 69 70 71 0
-72 -73 68 69 70 71 78 0
-72 -73 -79 68 69 70 71 0
-72 -74 68 69 70 71 73 0
-72 -75 68 69 70 71 73 0
-72 -76 68 69 70 71 73 0
-72 -77 68 69 70 71 73 0
-72 68 69 70 71 73 78 0
-72 68 69 70 71 73 79 0
-68 -69 -70 -71 -73 -74 72 0
-68 -69 -70 -71 -73 -75 72 0
-68 -69 -70 -71 -73 -76 72 0
-68 -69 -70 -71 -73 -77 72 0
-68 -69 -70 -71 -73 72 78 0
-68 -69 -70 -71 -73 -79 72 0
-68 -69 -70 -71 72 73 74 0
-68 -69 -70 -71 72 73 75 0
-68 -69 -70 -71 72 73 76 0
-68 -69 -70 -71 72 73 77 0
-68 -69 -70 -71 -78 72 73 0
-68 -69 -70 -71 72 73 79 0
-69 -70 -71 -73 68 72 74 0
-69 -70 -71 -73 68 72 75 0
-69 -70 -71 -73 68 72 76 0
-69 -70 -71 -73 68 72 77 0
-69 -70 -71 -73 -78 68 72 0
-69 -70 -71 -73 -79 68 72 0
-69 -70 -71 -74 68 72 73 0
-69 -70 -71 68 72 73 75 0
-69 -70 -71 68 72 73 76 0
-69 -70 -71 68 72 73 77 0
-69 -70 -71 -78 68 72 73 0
-69 -70 -71 68 72 73 79 0
-68 -70 -71 -73 -74 69 72 0
-68 -70 -71 -73 69 72 75 0
-68 -70 -71 -73 69 72 76 0
-68 -70 -71 -73 69 72 77 0
-68 -70 -71 -73 -78 69 72 0
-68 -70 -71 -73 -79 69 72 0
-68 -70 -71 69 72 73 74 0
-68 -70 -71 -75 69 72 73 0
-68 -70 -71 69 72 73 76 0
-68 -70 -71 69 72 73 77 0
-68 -70 -71 -78 69 72 73 0
-68 -70 -71 69 72 73 79 0
-70 -71 -73 68 69 72 74 0
-70 -71 -73 -75 68 69 72 0
-70 -71 -73 68 69 72 76 0
-70 -71 -73 68 69 72 77 0
-70 -71 -73 -78 68 69 72 0
-70 -71 -73 -79 68 69 72 0
-70 -71 -74 68 69 72 73 0
-70 -71 -75 68 69 72 73 0
-70 -71 68 69 72 73 76 0
-70 -71 68 69 72 73 77 0
-70 -71 -78 68 69 72 73 0
-70 -71 68 69 72 73 79 0
-68 -69 -71 -73 -74 70 72 0
-68 -69 -71 -73 -75 70 72 0
-68 -69 -71 -73 70 72 76 0
-68 -69 -71 -73 70 72 77 0
-68 -69 -71 -73 -78 70 72 0
-68 -69 -71 -73 -79 70 72 0
-68 -69 -71 70 72 73 74 0
-68 -69 -71 70 72 73 75 0
-68 -69 -71 -76 70 72 73 0
-68 -69 -71 70 72 73 77 0
-68 -69 -71 -78 70 72 73 0
-68 -69 -71 70 72 73 79 0
-69 -71 -73 68 70 72 74 0
-69 -71 -73 68 70 72 75 0
-69 -71 -73 -76 68 70 72 0
-69 -71 -73 68 70 72 77 0
-69 -71 -73 -78 68 70 72 0
-69 -71 -73 -79 68 70 72 0
-69 -71 -74 68 70 72 73 0
-69 -71 68 70 72 73 75 0
-69 -71 -76 68 70 72 73 0
-69 -71 68 70 72 73 77 0
-69 -71 -78 68 70 72 73 0
-69 -71 68 70 72 73 79 0
-68 -71 -73 -74 69 70 72 0
-68 -71 -73 69 70 72 75 0
-68 -71 -73 -76 69 70 72 0
-68 -71 -73 69 70 72 77 0
-68 -71 -73 -78 69 70 72 0
-68 -71 -73 -79 69 70 72 0
-68 -71 69 70 72 73 74 0
-68 -71 -75 69 70 72 73 0
-68 -71 -76 69 70 72 73 0
-68 -71 69 70 72 73 77 0
-68 -71 -78 69 70 72 73 0
-68 -71 69 70 72 73 79 0
-71 -73 68 69 70 72 74 0
-71 -73 -75 68 69 70 72 0
-71 -73 -76 68 69 70 72 0
-71 -73 68 69 70 72 77 0
-71 -73 -78 68 69 70 72 0
-71 -73 -79 68 69 70 72 0
-71 -74 68 69 70 72 73 0
-71 -75 68 69 70 72 73 0
-71 -76 68 69 70 72 73 0
-71 68 69 70 72 73 77 0
-71 -78 68 69 70 72 73 0
-71 68 69 70 72 73 79 0
-68 -69 -70 -73 -74 71 72 0
-68 -69 -70 -73 -75 71 72 0
-68 -69 -70 -73 -76 71 72 0
-68 -69 -70 -73 71 72 77 0
-68 -69 -70 -73 -78 71 72 0
-68 -69 -70 -73 -79 71 72 0
-68 -69 -70 71 72 73 74 0
-68 -69 -70 71 72 73 75 0
-68 -69 -70 71 72 73 76 0
-68 -69 -70 -77 71 72 73 0
-68 -69 -70 -78 71 72 73 0
-68 -69 -70 71 72 73 79 0
-69 -70 -73 68 71 72 74 0
-69 -70 -73 68 71 72 75 0
-69 -70 -73 68 71 72 76 0
-69 -70 -73 -77 68 71 72 0
-69 -70 -73 -78 68 71 72 0
-69 -70 -73 -79 68 71 72 0
-69 -70 -74 68 71 72 73 0
-69 -70 68 71 72 73 75 0
-69 -70 68 71 72 73 76 0
-69 -70 -77 68 71 72 73 0
-69 -70 -78 68 71 72 73 0
-69 -70 68 71 72 73 79 0
-68 -70 -73 -74 69 71 72 0
-68 -70 -73 69 71 72 75 0
-68 -70 -73 69 71 72 76 0
-68 -70 -73 -77 69 71 72 0
-68 -70 -73 -78 69 71 72 0
-68 -70 -73 -79 69 71 72 0
-68 -70 69 71 72 73 74 0
-68 -70 -75 69 71 72 73 0
-68 -70 69 71 72 73 76 0
-68 -70 -77 69 71 72 73 0
-68 -70 -78 69 71 72 73 0
-68 -70 69 71 72 73 79 0
-70 -73 68 69 71 72 74 0
-70 -73 -75 68 69 71 72 0
-70 -73 68 69 71 72 76 0
-70 -73 -77 68 69 71 72 0
-70 -73 -78 68 69 71 72 0
-70 -73 -79 68 69 71 72 0
-70 -74 68 69 71 72 73 0
-70 -75 68 69 71 72 73 0
-70 68 69 71 72 73 76 0
-70 -77 68 69 71 72 73 0
-70 -78 68 69 71 72 73 0
-70 68 69 71 72 73 79 0
-68 -69 -73 -74 70 71 72 0
-68 -69 -73 -75 70 71 72 0
-68 -69 -73 70 71 72 76 0
-68 -69 -73 -77 70 71 72 0
-68 -69 -73 -78 70 71 72 0
-68 -69 -73 -79 70 71 72 0
-68 -69 70 71 72 73 74 0
-68 -69 70 71 72 73 75 0
-68 -69 -76 70 71 72 73 0
-68 -69 -77 70 71 72 73 0
-68 -69 -78 70 71 72 73 0
-68 -69 70 71 72 73 79 0
-69 -73 68 70 71 72 74 0
-69 -73 68 70 71 72 75 0
-69 -73 -76 68 70 71 72 0
-69 -73 -77 68 70 71 72 0
-69 -73 -78 68 70 71 72 0
-69 -73 -79 68 70 71 72 0
-69 -74 68 70 71 72 73 0
-69 68 70 71 72 73 75 0
-69 -76 68 70 71 72 73 0
-69 -77 68 70 71 72 73 0
-69 -78 68 70 71 72 73 0
-69 68 70 71 72 73 79 0
-68 -73 -74 69 70 71 72 0
-68 -73 69 70 71 72 75 0
-68 -73 -76 69 70 71 72 0
-68 -73 -77 69 70 71 72 0
-68 -73 -78 69 70 71 72 0
-68 -73 -79 69 70 71 72 0
-68 69 70 71 72 73 74 0
-68 -75 69 70 71 72 73 0
-68 -76 69 70 71 72 73 0
-68 -77 69 70 71 72 73 0
-68 -78 69 70 71 72 73 0
-68 69 70 71 72 73 79 0
-73 68 69 70 71 72 74 0
-73 -75 68 69 70 71 72 0
-73 -76 68 69 70 71 72 0
-73 -77 68 69 70 71 72 0
-73 -78 68 69 70 71 72 0
-73 -79 68 69 70 71 72 0
-74 68 69 70 71 72 73 0
-75 68 69 70 71 72 73 0
-76 68 69 70 71 72 73 0
-77 68 69 70 71 72 73 0
-78 68 69 70 71 72 73 0
68 69 70 71 72 73 79 0
-68 -69 -70 -71 -72 73 74 0
-68 -69 -70 -71 -72 73 75 0
-68 -69 -70 -71 -72 73 76 0
-68 -69 -70 -71 -72 73 77 0
-68 -69 -70 -71 -72 73 78 0
-68 -69 -70 -71 -72 73 79 0
-80 0
-81 0
-82 0
-83 0
-84 0
-85 0
-86 0
-34 -86 0
-34 -80 0
-4 -35 0
-1 -35 0
-5 -36 0
-2 -36 0
-38 -81 0
-38 -86 0
-9 -39 0
-4 -39 0
-10 -40 0
-5 -40 0
-42 -82 0
-42 -86 0
-14 -43 0
-4 -43 0
-15 -44 0
-5 -44 0
-46 -83 0
-46 -86 0
-19 -47 0
-4 -47 0
-20 -48 0
-5 -48 0
-50 -84 0
-50 -86 0
-24 -51 0
-4 -51 0
-25 -52 0
-5 -52 0
-54 -85 0
-54 -86 0
-29 -56 0
-4 -56 0
-30 -58 0
-5 -58 0
-55 86 0
-57 4 0
-59 5 0
-34 4 0
-7 -34 0
-34 1 0
-35 5 0
-8 -35 0
-35 2 0
-36 6 0
-36 -62 0
-36 3 0
-38 9 0
-12 -38 0
-38 4 0
-39 10 0
-13 -39 0
-39 5 0
-40 11 0
-40 -63 0
-40 6 0
-42 14 0
-17 -42 0
-42 4 0
-43 15 0
-18 -43 0
-43 5 0
-44 16 0
-44 -64 0
-44 6 0
-46 19 0
-22 -46 0
-46 4 0
-47 20 0
-23 -47 0
-47 5 0
-48 21 0
-48 -65 0
-48 6 0
-50 24 0
-27 -50 0
-50 4 0
-51 25 0
-28 -51 0
-51 5 0
-52 26 0
-52 -66 0
-52 6 0
-54 29 0
-32 -54 0
-54 4 0
-56 30 0
-33 -56 0
-56 5 0
-58 31 0
-58 -67 0
-58 6 0
-4 -55 0
-5 -57 0
-6 -59 0
-1 34 80 0
-2 1 35 0
-3 2 36 0
-80 1 0
-1 2 0
-2 3 0
-4 34 38 42 46 50 54 86 0
-5 4 35 39 43 47 51 56 0
-6 5 36 40 44 48 52 58 0
-86 4 55 0
-4 5 57 0
-5 6 59 0
-7 79 0
-8 7 0
-62 8 0
-79 7 34 0
-7 8 35 0
-8 36 62 0
-9 38 81 0
-10 9 39 0
-11 10 40 0
-81 9 0
-9 10 0
-10 11 0
-12 74 0
-13 12 0
-63 13 0
-74 12 38 0
-12 13 39 0
-13 40 63 0
-14 42 82 0
-15 14 43 0
-16 15 44 0
-82 14 0
-14 15 0
-15 16 0
-17 75 0
-18 17 0
-64 18 0
-75 17 42 0
-17 18 43 0
-18 44 64 0
-19 46 83 0
-20 19 47 0
-21 20 48 0
-83 19 0
-19 20 0
-20 21 0
-22 76 0
-23 22 0
-65 23 0
-76 22 46 0
-22 23 47 0
-23 48 65 0
-24 50 84 0
-25 24 51 0
-26 25 52 0
-84 24 0
-24 25 0
-25 26 0
-27 77 0
-28 27 0
-66 28 0
-77 27 50 0
-27 28 51 0
-28 52 66 0
-29 54 85 0
-30 29 56 0
-31 30 58 0
-85 29 0
-29 30 0
-30 31 0
-32 78 0
-33 32 0
-67 33 0
-78 32 54 0
-32 33 56 0
-33 58 67 0
-34 -38 0
-35 -39 0
-36 -40 0
-37 -41 0
-34 -42 0
-35 -43 0
-36 -44 0
-37 -45 0
-34 -46 0
-35 -47 0
-36 -48 0
-37 -49 0
-34 -50 0
-35 -51 0
-36 -52 0
-37 -53 0
-34 -54 0
-35 -56 0
-36 -58 0
-37 -60 0
-34 -55 0
-35 -57 0
-36 -59 0
-37 -61 0
-38 -42 0
-39 -43 0
-40 -44 0
-41 -45 0
-38 -46 0
-39 -47 0
-40 -48 0
-41 -49 0
-38 -50 0
-39 -51 0
-40 -52 0
-41 -53 0
-38 -54 0
-39 -56 0
-40 -58 0
-41 -60 0
-38 -55 0
-39 -57 0
-40 -59 0
-41 -61 0
-42 -46 0
-43 -47 0
-44 -48 0
-45 -49 0
-42 -50 0
-43 -51 0
-44 -52 0
-45 -53 0
-42 -54 0
-43 -56 0
-44 -58 0
-45 -60 0
-42 -55 0
-43 -57 0
-44 -59 0
-45 -61 0
-46 -50 0
-47 -51 0
-48 -52 0
-49 -53 0
-46 -54 0
-47 -56 0
-48 -58 0
-49 -60 0
-46 -55 0
-47 -57 0
-48 -59 0
-49 -61 0
-50 -54 0
-51 -56 0
-52 -58 0
-53 -60 0
-50 -55 0
-51 -57 0
-52 -59 0
-53 -61 0
-54 -55 0
-56 -57 0
-58 -59 0
-60 -61 0
-62 0
-63 0
-64 0
-65 0
-66 0
-67 0
